db/data/257691536510482162994211876261009484.z3.out
unsat
-------------------
75.435299428
